CMPL model generation - running

CMPL version: 1.11.0
Authors: Thomas Schleiff, Mike Steglich
Distributed under the GPLv3 

create model instance ...
write model instance ...
CMPL model generation - finished

Solver - running


Welcome to IBM(R) ILOG(R) CPLEX(R) Interactive Optimizer 12.7.1.0
  with Simplex, Mixed Integer & Barrier Optimizers
5725-A06 5725-A29 5724-Y48 5724-Y49 5724-Y54 5724-Y55 5655-Y21
Copyright IBM Corp. 1988, 2017.  All Rights Reserved.

Type 'help' for a list of available commands.
Type 'help' followed by a command name for more
information on commands.

CPLEX> Specified objective sense: MINIMIZE
Selected objective  name:  line[1]
Selected RHS        name:  RHS
Selected bound      name:  BOUND
Problem '/tmp/cmpl.T23864.mps' read.
Read time = 0.05 sec. (8.17 ticks)
CPLEX> CPXPARAM_Read_APIEncoding                        "UTF-8"
Tried aggregator 3 times.
MIP Presolve eliminated 19262 rows and 30747 columns.
MIP Presolve modified 340 coefficients.
Aggregator did 610 substitutions.
Reduced MIP has 2483 rows, 3236 columns, and 9444 nonzeros.
Reduced MIP has 3068 binaries, 0 generals, 0 SOSs, and 0 indicators.
Presolve time = 0.05 sec. (40.35 ticks)
Found incumbent of value 522.222992 after 0.10 sec. (60.01 ticks)
Probing fixed 9 vars, tightened 0 bounds.
Probing time = 0.01 sec. (4.18 ticks)
Tried aggregator 1 time.
MIP Presolve eliminated 0 rows and 9 columns.
MIP Presolve modified 34 coefficients.
Reduced MIP has 2483 rows, 3227 columns, and 9426 nonzeros.
Reduced MIP has 3227 binaries, 0 generals, 0 SOSs, and 0 indicators.
Presolve time = 0.01 sec. (8.07 ticks)
Probing time = 0.01 sec. (2.67 ticks)
Clique table members: 5891.
MIP emphasis: balance optimality and feasibility.
MIP search method: dynamic search.
Parallel mode: none, using 1 thread.
Root relaxation solution time = 0.00 sec. (4.43 ticks)

        Nodes                                         Cuts/
   Node  Left     Objective  IInf  Best Integer    Best Bound    ItCnt     Gap

*     0+    0                          522.2230      -50.5067           109.67%
      0     0       95.8367    18      522.2230       95.8367      106   81.65%
*     0+    0                          106.0932       95.8367             9.67%
*     0+    0                           96.3509       95.8367             0.53%
      0     0       96.2591     1       96.3509      Cuts: 12      113    0.10%
*     0+    0                           96.2705       96.2591             0.01%
      0     0        cutoff             96.2705                    115    0.00%
Elapsed time = 0.18 sec. (103.69 ticks, tree = 0.01 MB, solutions = 4)

Cover cuts applied:  8
Gomory fractional cuts applied:  4

Root node processing (before b&c):
  Real time             =    0.19 sec. (105.41 ticks)
Sequential b&c:
  Real time             =    0.00 sec. (0.00 ticks)
                          ------------
Total (root+branch&cut) =    0.19 sec. (105.41 ticks)

Solution pool: 4 solutions saved.

MIP - Integer optimal solution:  Objective =  9.6270493000e+01
Solution time =    0.19 sec.  Iterations = 115  Nodes = 0
Deterministic time = 105.50 ticks  (567.52 ticks/sec)

CPLEX> Incumbent solution written to file '/tmp/cmpl.T23864.gsol'.
CPLEX> 
CMPL: Time used for model generation: 1 seconds
CMPL: Time used for solving the model: 1 seconds


Solution written to ASCII file: results/output_generated_conf_0.3/2017-06-05-4/fair-nonlinear.sol

Solver - finished
